p edge 21 105
1 2
1 3
1 4
1 5
1 6
1 7
1 8
1 9
1 10
1 11
2 3
2 4
2 5
2 6
2 7
2 12
2 13
2 14
2 15
3 4
3 5
3 6
3 8
3 12
3 16
3 17
3 18
4 5
4 6
4 9
4 13
4 16
4 19
4 20
5 6
5 10
5 14
5 17
5 19
5 21
6 11
6 15
6 18
6 20
6 21
7 8
7 9
7 10
7 11
7 12
7 13
7 14
7 15
8 9
8 10
8 11
8 12
8 16
8 17
8 18
9 10
9 11
9 13
9 16
9 19
9 20
10 11
10 14
10 17
10 19
10 21
11 15
11 18
11 20
11 21
12 13
12 14
12 15
12 16
12 17
12 18
13 14
13 15
13 16
13 19
13 20
14 15
14 17
14 19
14 21
15 18
15 20
15 21
16 17
16 18
16 19
16 20
17 18
17 19
17 21
18 20
18 21
19 20
19 21
20 21
